c File: flat75_3_0.col
c
c SOURCE: Joseph Culberson (joe@cs.ualberta.ca)
c DESCRIPTION: Quasi-random coloring problem
c              generated with flatness = 0
c                             probability = 0.096
c                             known coloring = 3
c                             random seed = 1047
c              Creation Date:  Wed Feb 24 10:42:00 1999
c Maximum degree = 8 Minimum degree = 1
c COLOR VERIFICATION: Using the permuted order
c under simple greedy yields the specified
c coloring number
c Color = 3 specified partitions = 3
c p edge 75 180
c cnf created by edge2cnf
p cnf 225 840
-1 -2 0
-1 -3 0
-2 -3 0
1 2 3 0
-4 -5 0
-4 -6 0
-5 -6 0
4 5 6 0
-7 -8 0
-7 -9 0
-8 -9 0
7 8 9 0
-10 -11 0
-10 -12 0
-11 -12 0
10 11 12 0
-13 -14 0
-13 -15 0
-14 -15 0
13 14 15 0
-16 -17 0
-16 -18 0
-17 -18 0
16 17 18 0
-19 -20 0
-19 -21 0
-20 -21 0
19 20 21 0
-22 -23 0
-22 -24 0
-23 -24 0
22 23 24 0
-25 -26 0
-25 -27 0
-26 -27 0
25 26 27 0
-28 -29 0
-28 -30 0
-29 -30 0
28 29 30 0
-31 -32 0
-31 -33 0
-32 -33 0
31 32 33 0
-34 -35 0
-34 -36 0
-35 -36 0
34 35 36 0
-37 -38 0
-37 -39 0
-38 -39 0
37 38 39 0
-40 -41 0
-40 -42 0
-41 -42 0
40 41 42 0
-43 -44 0
-43 -45 0
-44 -45 0
43 44 45 0
-46 -47 0
-46 -48 0
-47 -48 0
46 47 48 0
-49 -50 0
-49 -51 0
-50 -51 0
49 50 51 0
-52 -53 0
-52 -54 0
-53 -54 0
52 53 54 0
-55 -56 0
-55 -57 0
-56 -57 0
55 56 57 0
-58 -59 0
-58 -60 0
-59 -60 0
58 59 60 0
-61 -62 0
-61 -63 0
-62 -63 0
61 62 63 0
-64 -65 0
-64 -66 0
-65 -66 0
64 65 66 0
-67 -68 0
-67 -69 0
-68 -69 0
67 68 69 0
-70 -71 0
-70 -72 0
-71 -72 0
70 71 72 0
-73 -74 0
-73 -75 0
-74 -75 0
73 74 75 0
-76 -77 0
-76 -78 0
-77 -78 0
76 77 78 0
-79 -80 0
-79 -81 0
-80 -81 0
79 80 81 0
-82 -83 0
-82 -84 0
-83 -84 0
82 83 84 0
-85 -86 0
-85 -87 0
-86 -87 0
85 86 87 0
-88 -89 0
-88 -90 0
-89 -90 0
88 89 90 0
-91 -92 0
-91 -93 0
-92 -93 0
91 92 93 0
-94 -95 0
-94 -96 0
-95 -96 0
94 95 96 0
-97 -98 0
-97 -99 0
-98 -99 0
97 98 99 0
-100 -101 0
-100 -102 0
-101 -102 0
100 101 102 0
-103 -104 0
-103 -105 0
-104 -105 0
103 104 105 0
-106 -107 0
-106 -108 0
-107 -108 0
106 107 108 0
-109 -110 0
-109 -111 0
-110 -111 0
109 110 111 0
-112 -113 0
-112 -114 0
-113 -114 0
112 113 114 0
-115 -116 0
-115 -117 0
-116 -117 0
115 116 117 0
-118 -119 0
-118 -120 0
-119 -120 0
118 119 120 0
-121 -122 0
-121 -123 0
-122 -123 0
121 122 123 0
-124 -125 0
-124 -126 0
-125 -126 0
124 125 126 0
-127 -128 0
-127 -129 0
-128 -129 0
127 128 129 0
-130 -131 0
-130 -132 0
-131 -132 0
130 131 132 0
-133 -134 0
-133 -135 0
-134 -135 0
133 134 135 0
-136 -137 0
-136 -138 0
-137 -138 0
136 137 138 0
-139 -140 0
-139 -141 0
-140 -141 0
139 140 141 0
-142 -143 0
-142 -144 0
-143 -144 0
142 143 144 0
-145 -146 0
-145 -147 0
-146 -147 0
145 146 147 0
-148 -149 0
-148 -150 0
-149 -150 0
148 149 150 0
-151 -152 0
-151 -153 0
-152 -153 0
151 152 153 0
-154 -155 0
-154 -156 0
-155 -156 0
154 155 156 0
-157 -158 0
-157 -159 0
-158 -159 0
157 158 159 0
-160 -161 0
-160 -162 0
-161 -162 0
160 161 162 0
-163 -164 0
-163 -165 0
-164 -165 0
163 164 165 0
-166 -167 0
-166 -168 0
-167 -168 0
166 167 168 0
-169 -170 0
-169 -171 0
-170 -171 0
169 170 171 0
-172 -173 0
-172 -174 0
-173 -174 0
172 173 174 0
-175 -176 0
-175 -177 0
-176 -177 0
175 176 177 0
-178 -179 0
-178 -180 0
-179 -180 0
178 179 180 0
-181 -182 0
-181 -183 0
-182 -183 0
181 182 183 0
-184 -185 0
-184 -186 0
-185 -186 0
184 185 186 0
-187 -188 0
-187 -189 0
-188 -189 0
187 188 189 0
-190 -191 0
-190 -192 0
-191 -192 0
190 191 192 0
-193 -194 0
-193 -195 0
-194 -195 0
193 194 195 0
-196 -197 0
-196 -198 0
-197 -198 0
196 197 198 0
-199 -200 0
-199 -201 0
-200 -201 0
199 200 201 0
-202 -203 0
-202 -204 0
-203 -204 0
202 203 204 0
-205 -206 0
-205 -207 0
-206 -207 0
205 206 207 0
-208 -209 0
-208 -210 0
-209 -210 0
208 209 210 0
-211 -212 0
-211 -213 0
-212 -213 0
211 212 213 0
-214 -215 0
-214 -216 0
-215 -216 0
214 215 216 0
-217 -218 0
-217 -219 0
-218 -219 0
217 218 219 0
-220 -221 0
-220 -222 0
-221 -222 0
220 221 222 0
-223 -224 0
-223 -225 0
-224 -225 0
223 224 225 0
-55 -1 0
-56 -2 0
-57 -3 0
-73 -1 0
-74 -2 0
-75 -3 0
-106 -1 0
-107 -2 0
-108 -3 0
-163 -1 0
-164 -2 0
-165 -3 0
-202 -1 0
-203 -2 0
-204 -3 0
-214 -1 0
-215 -2 0
-216 -3 0
-52 -4 0
-53 -5 0
-54 -6 0
-145 -4 0
-146 -5 0
-147 -6 0
-154 -4 0
-155 -5 0
-156 -6 0
-37 -7 0
-38 -8 0
-39 -9 0
-55 -7 0
-56 -8 0
-57 -9 0
-106 -7 0
-107 -8 0
-108 -9 0
-133 -7 0
-134 -8 0
-135 -9 0
-157 -7 0
-158 -8 0
-159 -9 0
-166 -7 0
-167 -8 0
-168 -9 0
-28 -10 0
-29 -11 0
-30 -12 0
-88 -13 0
-89 -14 0
-90 -15 0
-94 -13 0
-95 -14 0
-96 -15 0
-106 -13 0
-107 -14 0
-108 -15 0
-172 -13 0
-173 -14 0
-174 -15 0
-193 -13 0
-194 -14 0
-195 -15 0
-55 -16 0
-56 -17 0
-57 -18 0
-160 -16 0
-161 -17 0
-162 -18 0
-70 -19 0
-71 -20 0
-72 -21 0
-106 -19 0
-107 -20 0
-108 -21 0
-124 -19 0
-125 -20 0
-126 -21 0
-133 -19 0
-134 -20 0
-135 -21 0
-142 -19 0
-143 -20 0
-144 -21 0
-175 -19 0
-176 -20 0
-177 -21 0
-196 -19 0
-197 -20 0
-198 -21 0
-175 -22 0
-176 -23 0
-177 -24 0
-211 -22 0
-212 -23 0
-213 -24 0
-217 -22 0
-218 -23 0
-219 -24 0
-220 -22 0
-221 -23 0
-222 -24 0
-103 -25 0
-104 -26 0
-105 -27 0
-127 -25 0
-128 -26 0
-129 -27 0
-133 -25 0
-134 -26 0
-135 -27 0
-142 -25 0
-143 -26 0
-144 -27 0
-37 -28 0
-38 -29 0
-39 -30 0
-43 -28 0
-44 -29 0
-45 -30 0
-61 -28 0
-62 -29 0
-63 -30 0
-157 -28 0
-158 -29 0
-159 -30 0
-43 -31 0
-44 -32 0
-45 -33 0
-64 -31 0
-65 -32 0
-66 -33 0
-88 -31 0
-89 -32 0
-90 -33 0
-142 -31 0
-143 -32 0
-144 -33 0
-208 -31 0
-209 -32 0
-210 -33 0
-223 -31 0
-224 -32 0
-225 -33 0
-37 -34 0
-38 -35 0
-39 -36 0
-61 -34 0
-62 -35 0
-63 -36 0
-64 -34 0
-65 -35 0
-66 -36 0
-85 -34 0
-86 -35 0
-87 -36 0
-103 -34 0
-104 -35 0
-105 -36 0
-172 -34 0
-173 -35 0
-174 -36 0
-211 -34 0
-212 -35 0
-213 -36 0
-73 -37 0
-74 -38 0
-75 -39 0
-97 -37 0
-98 -38 0
-99 -39 0
-103 -37 0
-104 -38 0
-105 -39 0
-166 -37 0
-167 -38 0
-168 -39 0
-193 -37 0
-194 -38 0
-195 -39 0
-100 -40 0
-101 -41 0
-102 -42 0
-187 -40 0
-188 -41 0
-189 -42 0
-94 -43 0
-95 -44 0
-96 -45 0
-118 -43 0
-119 -44 0
-120 -45 0
-205 -43 0
-206 -44 0
-207 -45 0
-217 -43 0
-218 -44 0
-219 -45 0
-220 -43 0
-221 -44 0
-222 -45 0
-166 -46 0
-167 -47 0
-168 -48 0
-187 -46 0
-188 -47 0
-189 -48 0
-82 -49 0
-83 -50 0
-84 -51 0
-85 -49 0
-86 -50 0
-87 -51 0
-196 -49 0
-197 -50 0
-198 -51 0
-223 -49 0
-224 -50 0
-225 -51 0
-103 -52 0
-104 -53 0
-105 -54 0
-112 -52 0
-113 -53 0
-114 -54 0
-151 -52 0
-152 -53 0
-153 -54 0
-166 -52 0
-167 -53 0
-168 -54 0
-202 -52 0
-203 -53 0
-204 -54 0
-220 -52 0
-221 -53 0
-222 -54 0
-181 -55 0
-182 -56 0
-183 -57 0
-202 -55 0
-203 -56 0
-204 -57 0
-211 -55 0
-212 -56 0
-213 -57 0
-64 -58 0
-65 -59 0
-66 -60 0
-85 -58 0
-86 -59 0
-87 -60 0
-115 -58 0
-116 -59 0
-117 -60 0
-145 -58 0
-146 -59 0
-147 -60 0
-163 -58 0
-164 -59 0
-165 -60 0
-196 -58 0
-197 -59 0
-198 -60 0
-85 -61 0
-86 -62 0
-87 -63 0
-130 -61 0
-131 -62 0
-132 -63 0
-139 -64 0
-140 -65 0
-141 -66 0
-187 -64 0
-188 -65 0
-189 -66 0
-82 -67 0
-83 -68 0
-84 -69 0
-85 -67 0
-86 -68 0
-87 -69 0
-97 -67 0
-98 -68 0
-99 -69 0
-118 -67 0
-119 -68 0
-120 -69 0
-139 -67 0
-140 -68 0
-141 -69 0
-151 -67 0
-152 -68 0
-153 -69 0
-151 -70 0
-152 -71 0
-153 -72 0
-169 -70 0
-170 -71 0
-171 -72 0
-112 -73 0
-113 -74 0
-114 -75 0
-121 -73 0
-122 -74 0
-123 -75 0
-160 -73 0
-161 -74 0
-162 -75 0
-193 -73 0
-194 -74 0
-195 -75 0
-82 -76 0
-83 -77 0
-84 -78 0
-118 -76 0
-119 -77 0
-120 -78 0
-121 -76 0
-122 -77 0
-123 -78 0
-130 -76 0
-131 -77 0
-132 -78 0
-163 -76 0
-164 -77 0
-165 -78 0
-208 -76 0
-209 -77 0
-210 -78 0
-94 -79 0
-95 -80 0
-96 -81 0
-97 -79 0
-98 -80 0
-99 -81 0
-100 -79 0
-101 -80 0
-102 -81 0
-151 -79 0
-152 -80 0
-153 -81 0
-157 -79 0
-158 -80 0
-159 -81 0
-175 -79 0
-176 -80 0
-177 -81 0
-184 -79 0
-185 -80 0
-186 -81 0
-193 -79 0
-194 -80 0
-195 -81 0
-145 -82 0
-146 -83 0
-147 -84 0
-190 -82 0
-191 -83 0
-192 -84 0
-205 -82 0
-206 -83 0
-207 -84 0
-214 -82 0
-215 -83 0
-216 -84 0
-106 -85 0
-107 -86 0
-108 -87 0
-178 -85 0
-179 -86 0
-180 -87 0
-103 -88 0
-104 -89 0
-105 -90 0
-124 -88 0
-125 -89 0
-126 -90 0
-100 -91 0
-101 -92 0
-102 -93 0
-103 -91 0
-104 -92 0
-105 -93 0
-124 -91 0
-125 -92 0
-126 -93 0
-154 -91 0
-155 -92 0
-156 -93 0
-175 -91 0
-176 -92 0
-177 -93 0
-208 -91 0
-209 -92 0
-210 -93 0
-133 -94 0
-134 -95 0
-135 -96 0
-160 -94 0
-161 -95 0
-162 -96 0
-106 -97 0
-107 -98 0
-108 -99 0
-193 -100 0
-194 -101 0
-195 -102 0
-172 -103 0
-173 -104 0
-174 -105 0
-169 -106 0
-170 -107 0
-171 -108 0
-157 -109 0
-158 -110 0
-159 -111 0
-130 -112 0
-131 -113 0
-132 -114 0
-160 -112 0
-161 -113 0
-162 -114 0
-169 -112 0
-170 -113 0
-171 -114 0
-133 -115 0
-134 -116 0
-135 -117 0
-142 -115 0
-143 -116 0
-144 -117 0
-199 -115 0
-200 -116 0
-201 -117 0
-172 -118 0
-173 -119 0
-174 -120 0
-193 -118 0
-194 -119 0
-195 -120 0
-196 -118 0
-197 -119 0
-198 -120 0
-199 -118 0
-200 -119 0
-201 -120 0
-133 -121 0
-134 -122 0
-135 -123 0
-199 -121 0
-200 -122 0
-201 -123 0
-151 -124 0
-152 -125 0
-153 -126 0
-190 -124 0
-191 -125 0
-192 -126 0
-133 -127 0
-134 -128 0
-135 -129 0
-148 -127 0
-149 -128 0
-150 -129 0
-175 -127 0
-176 -128 0
-177 -129 0
-190 -127 0
-191 -128 0
-192 -129 0
-205 -127 0
-206 -128 0
-207 -129 0
-139 -130 0
-140 -131 0
-141 -132 0
-148 -130 0
-149 -131 0
-150 -132 0
-196 -130 0
-197 -131 0
-198 -132 0
-199 -136 0
-200 -137 0
-201 -138 0
-166 -139 0
-167 -140 0
-168 -141 0
-190 -142 0
-191 -143 0
-192 -144 0
-208 -142 0
-209 -143 0
-210 -144 0
-223 -148 0
-224 -149 0
-225 -150 0
-157 -151 0
-158 -152 0
-159 -153 0
-160 -157 0
-161 -158 0
-162 -159 0
-163 -160 0
-164 -161 0
-165 -162 0
-205 -160 0
-206 -161 0
-207 -162 0
-211 -160 0
-212 -161 0
-213 -162 0
-184 -166 0
-185 -167 0
-186 -168 0
-172 -169 0
-173 -170 0
-174 -171 0
-193 -178 0
-194 -179 0
-195 -180 0
-199 -178 0
-200 -179 0
-201 -180 0
-187 -184 0
-188 -185 0
-189 -186 0
-202 -190 0
-203 -191 0
-204 -192 0
-205 -196 0
-206 -197 0
-207 -198 0
-208 -202 0
-209 -203 0
-210 -204 0
-220 -205 0
-221 -206 0
-222 -207 0
